2 10
97 95 
0 43 97 20 15 9 21 1
1 76 73 84 8 38 1 2
2 45 43 46 22 67 72 2
3 89 88 74 43 68 94 2
4 59 13 27 64 11 97 2
5 26 7 35 53 79 84 1
6 71 26 27 53 98 97 1
7 37 57 77 95 9 17 2
8 44 34 4 9 84 93 1
9 52 11 12 66 7 72 1
